NAME Resale_Solver
ROWS
 N  OBJ
 L  cost    
 L  weight  
 G  rep(0,0)
 G  rep(1,1)
 G  rep(2,2)
 G  rep(3,3)
 G  rep(4,4)
 G  rep(5,5)
 G  rep(6,6)
 G  rep(7,7)
 G  rep(8,8)
 G  rep(9,9)
 G  rep(10,10)
 G  rep(11,11)
 G  rep(12,12)
 G  rep(13,13)
 G  rep(14,14)
 G  rep(15,15)
 G  rep(16,16)
 G  rep(17,17)
 G  rep(18,18)
 G  rep(19,19)
 G  rep(20,20)
 G  rep(21,21)
 G  rep(22,22)
 G  rep(23,23)
 G  rep(24,24)
 G  rep(25,25)
 G  rep(26,26)
 G  rep(27,27)
 G  rep(28,28)
 G  rep(29,29)
 G  rep(30,30)
 G  rep(31,31)
 G  rep(32,32)
 G  rep(33,33)
 G  rep(34,34)
 G  rep(35,35)
 G  rep(36,36)
 G  rep(37,37)
 G  rep(38,38)
 G  rep(39,39)
 G  rep(40,40)
 G  rep(41,41)
 G  rep(42,42)
 G  rep(43,43)
 G  rep(44,44)
 G  rep(45,45)
 G  rep(46,46)
 G  rep(47,47)
 G  rep(48,48)
 G  rep(49,49)
 G  rep(50,50)
 G  rep(51,51)
 G  rep(52,52)
 G  rep(53,53)
 G  rep(54,54)
 G  rep(55,55)
 G  rep(56,56)
 G  rep(57,57)
 G  rep(58,58)
 G  rep(59,59)
 G  rep(60,60)
 G  rep(61,61)
 G  rep(62,62)
 G  rep(63,63)
 G  rep(64,64)
 G  rep(65,65)
 G  rep(66,66)
 G  rep(67,67)
 G  rep(68,68)
 G  rep(69,69)
 G  rep(70,70)
 G  rep(71,71)
 G  rep(72,72)
 G  rep(73,73)
 G  rep(74,74)
 G  rep(75,75)
 G  rep(76,76)
 G  rep(77,77)
 G  rep(78,78)
 G  rep(79,79)
 G  rep(80,80)
 G  rep(81,81)
 G  rep(82,82)
 G  rep(83,83)
 G  rep(84,84)
 G  rep(85,85)
 G  rep(86,86)
 G  rep(87,87)
 G  rep(88,88)
 G  rep(89,89)
 G  rep(90,90)
 G  rep(91,91)
 G  rep(92,92)
 G  rep(93,93)
 G  rep(94,94)
 G  rep(95,95)
 G  rep(96,96)
 G  rep(97,97)
 G  rep(98,98)
 G  rep(99,99)
 L  constr_0
 L  constr_1
 L  constr_2
 L  constr_3
 L  constr_4
 L  constr_5
 L  constr_6
 L  constr_7
 L  constr_8
 L  constr_9
COLUMNS
    MARKER    'MARKER'                 'INTORG'
    list[0]   OBJ       90
    list[0]   cost      10
    list[0]   rep(0,0)  -1
    list[1]   OBJ       90
    list[1]   cost      10
    list[1]   rep(1,1)  -1
    list[2]   OBJ       90
    list[2]   cost      10
    list[2]   rep(2,2)  -1
    list[3]   OBJ       110
    list[3]   cost      1
    list[3]   rep(3,3)  -1
    list[4]   OBJ       90
    list[4]   cost      10
    list[4]   rep(4,4)  -1
    list[5]   OBJ       90
    list[5]   cost      10
    list[5]   rep(5,5)  -1
    list[6]   OBJ       90
    list[6]   cost      10
    list[6]   rep(6,6)  -1
    list[7]   OBJ       90
    list[7]   cost      10
    list[7]   rep(7,7)  -1
    list[8]   OBJ       90
    list[8]   cost      10
    list[8]   rep(8,8)  -1
    list[9]   OBJ       90
    list[9]   cost      10
    list[9]   rep(9,9)  -1
    list[10]  OBJ       90
    list[10]  cost      10
    list[10]  rep(10,10)  -1
    list[11]  OBJ       90
    list[11]  cost      10
    list[11]  rep(11,11)  -1
    list[12]  OBJ       90
    list[12]  cost      10
    list[12]  rep(12,12)  -1
    list[13]  OBJ       90
    list[13]  cost      10
    list[13]  rep(13,13)  -1
    list[14]  OBJ       90
    list[14]  cost      10
    list[14]  rep(14,14)  -1
    list[15]  OBJ       90
    list[15]  cost      10
    list[15]  rep(15,15)  -1
    list[16]  OBJ       90
    list[16]  cost      10
    list[16]  rep(16,16)  -1
    list[17]  OBJ       90
    list[17]  cost      10
    list[17]  rep(17,17)  -1
    list[18]  OBJ       109
    list[18]  cost      1
    list[18]  rep(18,18)  -1
    list[19]  OBJ       90
    list[19]  cost      10
    list[19]  rep(19,19)  -1
    list[20]  OBJ       90
    list[20]  cost      10
    list[20]  rep(20,20)  -1
    list[21]  OBJ       90
    list[21]  cost      10
    list[21]  rep(21,21)  -1
    list[22]  OBJ       108
    list[22]  cost      1
    list[22]  rep(22,22)  -1
    list[23]  OBJ       90
    list[23]  cost      10
    list[23]  rep(23,23)  -1
    list[24]  OBJ       90
    list[24]  cost      10
    list[24]  rep(24,24)  -1
    list[25]  OBJ       90
    list[25]  cost      10
    list[25]  rep(25,25)  -1
    list[26]  OBJ       90
    list[26]  cost      10
    list[26]  rep(26,26)  -1
    list[27]  OBJ       90
    list[27]  cost      10
    list[27]  rep(27,27)  -1
    list[28]  OBJ       90
    list[28]  cost      10
    list[28]  rep(28,28)  -1
    list[29]  OBJ       90
    list[29]  cost      10
    list[29]  rep(29,29)  -1
    list[30]  OBJ       90
    list[30]  cost      10
    list[30]  rep(30,30)  -1
    list[31]  OBJ       90
    list[31]  cost      10
    list[31]  rep(31,31)  -1
    list[32]  OBJ       90
    list[32]  cost      10
    list[32]  rep(32,32)  -1
    list[33]  OBJ       90
    list[33]  cost      10
    list[33]  rep(33,33)  -1
    list[34]  OBJ       90
    list[34]  cost      10
    list[34]  rep(34,34)  -1
    list[35]  OBJ       90
    list[35]  cost      10
    list[35]  rep(35,35)  -1
    list[36]  OBJ       107
    list[36]  cost      1
    list[36]  rep(36,36)  -1
    list[37]  OBJ       90
    list[37]  cost      10
    list[37]  rep(37,37)  -1
    list[38]  OBJ       90
    list[38]  cost      10
    list[38]  rep(38,38)  -1
    list[39]  OBJ       90
    list[39]  cost      10
    list[39]  rep(39,39)  -1
    list[40]  OBJ       90
    list[40]  cost      10
    list[40]  rep(40,40)  -1
    list[41]  OBJ       90
    list[41]  cost      10
    list[41]  rep(41,41)  -1
    list[42]  OBJ       90
    list[42]  cost      10
    list[42]  rep(42,42)  -1
    list[43]  OBJ       90
    list[43]  cost      10
    list[43]  rep(43,43)  -1
    list[44]  OBJ       90
    list[44]  cost      10
    list[44]  rep(44,44)  -1
    list[45]  OBJ       106
    list[45]  cost      1
    list[45]  rep(45,45)  -1
    list[46]  OBJ       90
    list[46]  cost      10
    list[46]  rep(46,46)  -1
    list[47]  OBJ       90
    list[47]  cost      10
    list[47]  rep(47,47)  -1
    list[48]  OBJ       90
    list[48]  cost      10
    list[48]  rep(48,48)  -1
    list[49]  OBJ       90
    list[49]  cost      10
    list[49]  rep(49,49)  -1
    list[50]  OBJ       90
    list[50]  cost      10
    list[50]  rep(50,50)  -1
    list[51]  OBJ       90
    list[51]  cost      10
    list[51]  rep(51,51)  -1
    list[52]  OBJ       90
    list[52]  cost      10
    list[52]  rep(52,52)  -1
    list[53]  OBJ       90
    list[53]  cost      10
    list[53]  rep(53,53)  -1
    list[54]  OBJ       90
    list[54]  cost      10
    list[54]  rep(54,54)  -1
    list[55]  OBJ       90
    list[55]  cost      10
    list[55]  rep(55,55)  -1
    list[56]  OBJ       90
    list[56]  cost      10
    list[56]  rep(56,56)  -1
    list[57]  OBJ       105
    list[57]  cost      1
    list[57]  rep(57,57)  -1
    list[58]  OBJ       90
    list[58]  cost      10
    list[58]  rep(58,58)  -1
    list[59]  OBJ       90
    list[59]  cost      10
    list[59]  rep(59,59)  -1
    list[60]  OBJ       90
    list[60]  cost      10
    list[60]  rep(60,60)  -1
    list[61]  OBJ       90
    list[61]  cost      10
    list[61]  rep(61,61)  -1
    list[62]  OBJ       90
    list[62]  cost      10
    list[62]  rep(62,62)  -1
    list[63]  OBJ       90
    list[63]  cost      10
    list[63]  rep(63,63)  -1
    list[64]  OBJ       90
    list[64]  cost      10
    list[64]  rep(64,64)  -1
    list[65]  OBJ       90
    list[65]  cost      10
    list[65]  rep(65,65)  -1
    list[66]  OBJ       90
    list[66]  cost      10
    list[66]  rep(66,66)  -1
    list[67]  OBJ       90
    list[67]  cost      10
    list[67]  rep(67,67)  -1
    list[68]  OBJ       90
    list[68]  cost      10
    list[68]  rep(68,68)  -1
    list[69]  OBJ       104
    list[69]  cost      1
    list[69]  rep(69,69)  -1
    list[70]  OBJ       90
    list[70]  cost      10
    list[70]  rep(70,70)  -1
    list[71]  OBJ       103
    list[71]  cost      1
    list[71]  rep(71,71)  -1
    list[72]  OBJ       90
    list[72]  cost      10
    list[72]  rep(72,72)  -1
    list[73]  OBJ       90
    list[73]  cost      10
    list[73]  rep(73,73)  -1
    list[74]  OBJ       90
    list[74]  cost      10
    list[74]  rep(74,74)  -1
    list[75]  OBJ       90
    list[75]  cost      10
    list[75]  rep(75,75)  -1
    list[76]  OBJ       90
    list[76]  cost      10
    list[76]  rep(76,76)  -1
    list[77]  OBJ       90
    list[77]  cost      10
    list[77]  rep(77,77)  -1
    list[78]  OBJ       90
    list[78]  cost      10
    list[78]  rep(78,78)  -1
    list[79]  OBJ       90
    list[79]  cost      10
    list[79]  rep(79,79)  -1
    list[80]  OBJ       90
    list[80]  cost      10
    list[80]  rep(80,80)  -1
    list[81]  OBJ       90
    list[81]  cost      10
    list[81]  rep(81,81)  -1
    list[82]  OBJ       90
    list[82]  cost      10
    list[82]  rep(82,82)  -1
    list[83]  OBJ       90
    list[83]  cost      10
    list[83]  rep(83,83)  -1
    list[84]  OBJ       102
    list[84]  cost      1
    list[84]  rep(84,84)  -1
    list[85]  OBJ       90
    list[85]  cost      10
    list[85]  rep(85,85)  -1
    list[86]  OBJ       90
    list[86]  cost      10
    list[86]  rep(86,86)  -1
    list[87]  OBJ       90
    list[87]  cost      10
    list[87]  rep(87,87)  -1
    list[88]  OBJ       90
    list[88]  cost      10
    list[88]  rep(88,88)  -1
    list[89]  OBJ       90
    list[89]  cost      10
    list[89]  rep(89,89)  -1
    list[90]  OBJ       101
    list[90]  cost      1
    list[90]  rep(90,90)  -1
    list[91]  OBJ       90
    list[91]  cost      10
    list[91]  rep(91,91)  -1
    list[92]  OBJ       90
    list[92]  cost      10
    list[92]  rep(92,92)  -1
    list[93]  OBJ       90
    list[93]  cost      10
    list[93]  rep(93,93)  -1
    list[94]  OBJ       90
    list[94]  cost      10
    list[94]  rep(94,94)  -1
    list[95]  OBJ       90
    list[95]  cost      10
    list[95]  rep(95,95)  -1
    list[96]  OBJ       90
    list[96]  cost      10
    list[96]  rep(96,96)  -1
    list[97]  OBJ       90
    list[97]  cost      10
    list[97]  rep(97,97)  -1
    list[98]  OBJ       90
    list[98]  cost      10
    list[98]  rep(98,98)  -1
    list[99]  OBJ       90
    list[99]  cost      10
    list[99]  rep(99,99)  -1
    indicator[0]  rep(0,0)  1
    indicator[0]  constr_0  1
    indicator[1]  rep(1,1)  1
    indicator[1]  constr_0  1
    indicator[2]  rep(2,2)  1
    indicator[2]  constr_0  1
    indicator[3]  rep(3,3)  1
    indicator[3]  constr_0  1
    indicator[3]  constr_1  1
    indicator[4]  rep(4,4)  1
    indicator[4]  constr_0  1
    indicator[5]  rep(5,5)  1
    indicator[5]  constr_0  1
    indicator[6]  rep(6,6)  1
    indicator[6]  constr_0  1
    indicator[7]  rep(7,7)  1
    indicator[7]  constr_0  1
    indicator[8]  rep(8,8)  1
    indicator[8]  constr_0  1
    indicator[9]  rep(9,9)  1
    indicator[9]  constr_0  1
    indicator[10]  rep(10,10)  1
    indicator[10]  constr_1  1
    indicator[11]  rep(11,11)  1
    indicator[11]  constr_1  1
    indicator[12]  rep(12,12)  1
    indicator[12]  constr_1  1
    indicator[13]  rep(13,13)  1
    indicator[13]  constr_1  1
    indicator[14]  rep(14,14)  1
    indicator[14]  constr_1  1
    indicator[15]  rep(15,15)  1
    indicator[15]  constr_1  1
    indicator[16]  rep(16,16)  1
    indicator[16]  constr_1  1
    indicator[17]  rep(17,17)  1
    indicator[17]  constr_1  1
    indicator[18]  rep(18,18)  1
    indicator[18]  constr_1  1
    indicator[18]  constr_2  1
    indicator[19]  rep(19,19)  1
    indicator[19]  constr_1  1
    indicator[20]  rep(20,20)  1
    indicator[20]  constr_2  1
    indicator[21]  rep(21,21)  1
    indicator[21]  constr_2  1
    indicator[22]  rep(22,22)  1
    indicator[22]  constr_2  1
    indicator[22]  constr_3  1
    indicator[23]  rep(23,23)  1
    indicator[23]  constr_2  1
    indicator[24]  rep(24,24)  1
    indicator[24]  constr_2  1
    indicator[25]  rep(25,25)  1
    indicator[25]  constr_2  1
    indicator[26]  rep(26,26)  1
    indicator[26]  constr_2  1
    indicator[27]  rep(27,27)  1
    indicator[27]  constr_2  1
    indicator[28]  rep(28,28)  1
    indicator[28]  constr_2  1
    indicator[29]  rep(29,29)  1
    indicator[29]  constr_2  1
    indicator[30]  rep(30,30)  1
    indicator[30]  constr_3  1
    indicator[31]  rep(31,31)  1
    indicator[31]  constr_3  1
    indicator[32]  rep(32,32)  1
    indicator[32]  constr_3  1
    indicator[33]  rep(33,33)  1
    indicator[33]  constr_3  1
    indicator[34]  rep(34,34)  1
    indicator[34]  constr_3  1
    indicator[35]  rep(35,35)  1
    indicator[35]  constr_3  1
    indicator[36]  rep(36,36)  1
    indicator[36]  constr_3  1
    indicator[36]  constr_4  1
    indicator[37]  rep(37,37)  1
    indicator[37]  constr_3  1
    indicator[38]  rep(38,38)  1
    indicator[38]  constr_3  1
    indicator[39]  rep(39,39)  1
    indicator[39]  constr_3  1
    indicator[40]  rep(40,40)  1
    indicator[40]  constr_4  1
    indicator[41]  rep(41,41)  1
    indicator[41]  constr_4  1
    indicator[42]  rep(42,42)  1
    indicator[42]  constr_4  1
    indicator[43]  rep(43,43)  1
    indicator[43]  constr_4  1
    indicator[44]  rep(44,44)  1
    indicator[44]  constr_4  1
    indicator[45]  rep(45,45)  1
    indicator[45]  constr_4  1
    indicator[45]  constr_5  1
    indicator[46]  rep(46,46)  1
    indicator[46]  constr_4  1
    indicator[47]  rep(47,47)  1
    indicator[47]  constr_4  1
    indicator[48]  rep(48,48)  1
    indicator[48]  constr_4  1
    indicator[49]  rep(49,49)  1
    indicator[49]  constr_4  1
    indicator[50]  rep(50,50)  1
    indicator[50]  constr_5  1
    indicator[51]  rep(51,51)  1
    indicator[51]  constr_5  1
    indicator[52]  rep(52,52)  1
    indicator[52]  constr_5  1
    indicator[53]  rep(53,53)  1
    indicator[53]  constr_5  1
    indicator[54]  rep(54,54)  1
    indicator[54]  constr_5  1
    indicator[55]  rep(55,55)  1
    indicator[55]  constr_5  1
    indicator[56]  rep(56,56)  1
    indicator[56]  constr_5  1
    indicator[57]  rep(57,57)  1
    indicator[57]  constr_5  1
    indicator[57]  constr_6  1
    indicator[58]  rep(58,58)  1
    indicator[58]  constr_5  1
    indicator[59]  rep(59,59)  1
    indicator[59]  constr_5  1
    indicator[60]  rep(60,60)  1
    indicator[60]  constr_6  1
    indicator[61]  rep(61,61)  1
    indicator[61]  constr_6  1
    indicator[62]  rep(62,62)  1
    indicator[62]  constr_6  1
    indicator[63]  rep(63,63)  1
    indicator[63]  constr_6  1
    indicator[64]  rep(64,64)  1
    indicator[64]  constr_6  1
    indicator[65]  rep(65,65)  1
    indicator[65]  constr_6  1
    indicator[66]  rep(66,66)  1
    indicator[66]  constr_6  1
    indicator[67]  rep(67,67)  1
    indicator[67]  constr_6  1
    indicator[68]  rep(68,68)  1
    indicator[68]  constr_6  1
    indicator[69]  rep(69,69)  1
    indicator[69]  constr_6  1
    indicator[69]  constr_7  1
    indicator[70]  rep(70,70)  1
    indicator[70]  constr_7  1
    indicator[71]  rep(71,71)  1
    indicator[71]  constr_7  1
    indicator[71]  constr_8  1
    indicator[72]  rep(72,72)  1
    indicator[72]  constr_7  1
    indicator[73]  rep(73,73)  1
    indicator[73]  constr_7  1
    indicator[74]  rep(74,74)  1
    indicator[74]  constr_7  1
    indicator[75]  rep(75,75)  1
    indicator[75]  constr_7  1
    indicator[76]  rep(76,76)  1
    indicator[76]  constr_7  1
    indicator[77]  rep(77,77)  1
    indicator[77]  constr_7  1
    indicator[78]  rep(78,78)  1
    indicator[78]  constr_7  1
    indicator[79]  rep(79,79)  1
    indicator[79]  constr_7  1
    indicator[80]  rep(80,80)  1
    indicator[80]  constr_8  1
    indicator[81]  rep(81,81)  1
    indicator[81]  constr_8  1
    indicator[82]  rep(82,82)  1
    indicator[82]  constr_8  1
    indicator[83]  rep(83,83)  1
    indicator[83]  constr_8  1
    indicator[84]  rep(84,84)  1
    indicator[84]  constr_8  1
    indicator[84]  constr_9  1
    indicator[85]  rep(85,85)  1
    indicator[85]  constr_8  1
    indicator[86]  rep(86,86)  1
    indicator[86]  constr_8  1
    indicator[87]  rep(87,87)  1
    indicator[87]  constr_8  1
    indicator[88]  rep(88,88)  1
    indicator[88]  constr_8  1
    indicator[89]  rep(89,89)  1
    indicator[89]  constr_8  1
    indicator[90]  rep(90,90)  1
    indicator[90]  constr_0  1
    indicator[90]  constr_9  1
    indicator[91]  rep(91,91)  1
    indicator[91]  constr_9  1
    indicator[92]  rep(92,92)  1
    indicator[92]  constr_9  1
    indicator[93]  rep(93,93)  1
    indicator[93]  constr_9  1
    indicator[94]  rep(94,94)  1
    indicator[94]  constr_9  1
    indicator[95]  rep(95,95)  1
    indicator[95]  constr_9  1
    indicator[96]  rep(96,96)  1
    indicator[96]  constr_9  1
    indicator[97]  rep(97,97)  1
    indicator[97]  constr_9  1
    indicator[98]  rep(98,98)  1
    indicator[98]  constr_9  1
    indicator[99]  rep(99,99)  1
    indicator[99]  constr_9  1
    MARKER    'MARKER'                 'INTEND'
RHS
    RHS1      OBJ       -100
    RHS1      cost      100
    RHS1      weight    1
    RHS1      constr_0  1
    RHS1      constr_1  1
    RHS1      constr_2  1
    RHS1      constr_3  1
    RHS1      constr_4  1
    RHS1      constr_5  1
    RHS1      constr_6  1
    RHS1      constr_7  1
    RHS1      constr_8  1
    RHS1      constr_9  1
BOUNDS
 BV BND1      list[0] 
 BV BND1      list[1] 
 BV BND1      list[2] 
 BV BND1      list[3] 
 BV BND1      list[4] 
 BV BND1      list[5] 
 BV BND1      list[6] 
 BV BND1      list[7] 
 BV BND1      list[8] 
 BV BND1      list[9] 
 BV BND1      list[10]
 BV BND1      list[11]
 BV BND1      list[12]
 BV BND1      list[13]
 BV BND1      list[14]
 BV BND1      list[15]
 BV BND1      list[16]
 BV BND1      list[17]
 BV BND1      list[18]
 BV BND1      list[19]
 BV BND1      list[20]
 BV BND1      list[21]
 BV BND1      list[22]
 BV BND1      list[23]
 BV BND1      list[24]
 BV BND1      list[25]
 BV BND1      list[26]
 BV BND1      list[27]
 BV BND1      list[28]
 BV BND1      list[29]
 BV BND1      list[30]
 BV BND1      list[31]
 BV BND1      list[32]
 BV BND1      list[33]
 BV BND1      list[34]
 BV BND1      list[35]
 BV BND1      list[36]
 BV BND1      list[37]
 BV BND1      list[38]
 BV BND1      list[39]
 BV BND1      list[40]
 BV BND1      list[41]
 BV BND1      list[42]
 BV BND1      list[43]
 BV BND1      list[44]
 BV BND1      list[45]
 BV BND1      list[46]
 BV BND1      list[47]
 BV BND1      list[48]
 BV BND1      list[49]
 BV BND1      list[50]
 BV BND1      list[51]
 BV BND1      list[52]
 BV BND1      list[53]
 BV BND1      list[54]
 BV BND1      list[55]
 BV BND1      list[56]
 BV BND1      list[57]
 BV BND1      list[58]
 BV BND1      list[59]
 BV BND1      list[60]
 BV BND1      list[61]
 BV BND1      list[62]
 BV BND1      list[63]
 BV BND1      list[64]
 BV BND1      list[65]
 BV BND1      list[66]
 BV BND1      list[67]
 BV BND1      list[68]
 BV BND1      list[69]
 BV BND1      list[70]
 BV BND1      list[71]
 BV BND1      list[72]
 BV BND1      list[73]
 BV BND1      list[74]
 BV BND1      list[75]
 BV BND1      list[76]
 BV BND1      list[77]
 BV BND1      list[78]
 BV BND1      list[79]
 BV BND1      list[80]
 BV BND1      list[81]
 BV BND1      list[82]
 BV BND1      list[83]
 BV BND1      list[84]
 BV BND1      list[85]
 BV BND1      list[86]
 BV BND1      list[87]
 BV BND1      list[88]
 BV BND1      list[89]
 BV BND1      list[90]
 BV BND1      list[91]
 BV BND1      list[92]
 BV BND1      list[93]
 BV BND1      list[94]
 BV BND1      list[95]
 BV BND1      list[96]
 BV BND1      list[97]
 BV BND1      list[98]
 BV BND1      list[99]
 LI BND1      indicator[0]  0
 LI BND1      indicator[1]  0
 LI BND1      indicator[2]  0
 LI BND1      indicator[3]  0
 LI BND1      indicator[4]  0
 LI BND1      indicator[5]  0
 LI BND1      indicator[6]  0
 LI BND1      indicator[7]  0
 LI BND1      indicator[8]  0
 LI BND1      indicator[9]  0
 LI BND1      indicator[10]  0
 LI BND1      indicator[11]  0
 LI BND1      indicator[12]  0
 LI BND1      indicator[13]  0
 LI BND1      indicator[14]  0
 LI BND1      indicator[15]  0
 LI BND1      indicator[16]  0
 LI BND1      indicator[17]  0
 LI BND1      indicator[18]  0
 LI BND1      indicator[19]  0
 LI BND1      indicator[20]  0
 LI BND1      indicator[21]  0
 LI BND1      indicator[22]  0
 LI BND1      indicator[23]  0
 LI BND1      indicator[24]  0
 LI BND1      indicator[25]  0
 LI BND1      indicator[26]  0
 LI BND1      indicator[27]  0
 LI BND1      indicator[28]  0
 LI BND1      indicator[29]  0
 LI BND1      indicator[30]  0
 LI BND1      indicator[31]  0
 LI BND1      indicator[32]  0
 LI BND1      indicator[33]  0
 LI BND1      indicator[34]  0
 LI BND1      indicator[35]  0
 LI BND1      indicator[36]  0
 LI BND1      indicator[37]  0
 LI BND1      indicator[38]  0
 LI BND1      indicator[39]  0
 LI BND1      indicator[40]  0
 LI BND1      indicator[41]  0
 LI BND1      indicator[42]  0
 LI BND1      indicator[43]  0
 LI BND1      indicator[44]  0
 LI BND1      indicator[45]  0
 LI BND1      indicator[46]  0
 LI BND1      indicator[47]  0
 LI BND1      indicator[48]  0
 LI BND1      indicator[49]  0
 LI BND1      indicator[50]  0
 LI BND1      indicator[51]  0
 LI BND1      indicator[52]  0
 LI BND1      indicator[53]  0
 LI BND1      indicator[54]  0
 LI BND1      indicator[55]  0
 LI BND1      indicator[56]  0
 LI BND1      indicator[57]  0
 LI BND1      indicator[58]  0
 LI BND1      indicator[59]  0
 LI BND1      indicator[60]  0
 LI BND1      indicator[61]  0
 LI BND1      indicator[62]  0
 LI BND1      indicator[63]  0
 LI BND1      indicator[64]  0
 LI BND1      indicator[65]  0
 LI BND1      indicator[66]  0
 LI BND1      indicator[67]  0
 LI BND1      indicator[68]  0
 LI BND1      indicator[69]  0
 LI BND1      indicator[70]  0
 LI BND1      indicator[71]  0
 LI BND1      indicator[72]  0
 LI BND1      indicator[73]  0
 LI BND1      indicator[74]  0
 LI BND1      indicator[75]  0
 LI BND1      indicator[76]  0
 LI BND1      indicator[77]  0
 LI BND1      indicator[78]  0
 LI BND1      indicator[79]  0
 LI BND1      indicator[80]  0
 LI BND1      indicator[81]  0
 LI BND1      indicator[82]  0
 LI BND1      indicator[83]  0
 LI BND1      indicator[84]  0
 LI BND1      indicator[85]  0
 LI BND1      indicator[86]  0
 LI BND1      indicator[87]  0
 LI BND1      indicator[88]  0
 LI BND1      indicator[89]  0
 LI BND1      indicator[90]  0
 LI BND1      indicator[91]  0
 LI BND1      indicator[92]  0
 LI BND1      indicator[93]  0
 LI BND1      indicator[94]  0
 LI BND1      indicator[95]  0
 LI BND1      indicator[96]  0
 LI BND1      indicator[97]  0
 LI BND1      indicator[98]  0
 LI BND1      indicator[99]  0
ENDATA
